SimulationType                MonteCarlo
NumberOfCycles                50000
NumberOfInitializationCycles  10000
PrintEvery                    5000

UseChargesFromCIFFile         no 
CutOff                        12.0
Forcefield                    Dubbeldam2007FlexibleIRMOF-1
TimeStep                      0.0005

Framework 0
FrameworkName IRMOF-1
UnitCells 1 1 1
HeliumVoidFraction 0
ExternalTemperature 298.0
ExternalPressure 10e6


FrameworkDefinitions Dubbeldam2007FlexibleIRMOF-1
FlexibleFramework yes

HybridNVEMoveProbability 1.0
  NumberOfHybridNVESteps 5

Component 0 MoleculeName              methane
            MoleculeDefinition        ExampleDefinitions
            RotationProbability       0.5
            ReinsertionProbability    0.5
            SwapProbability           1.0
            CreateNumberOfMolecules   0













